1
0 0
1 1
74
75
0 1
1 2
73
74
0 2
1 3
72
73
0 3
1 4
71
72
0 4
1 5
70
71
0 5
1 6
69
70
0 6
1 7
68
69
0 7
1 8
67
68
0 8
1 9
66
67
0 9
1 10
65
66
0 10
1 11
64
65
0 11
1 12
63
64
0 12
1 13
62
63
0 13
1 14
61
62
0 14
1 15
60
61
0 15
1 16
59
60
0 16
1 17
58
59
0 17
1 18
57
58
0 18
1 19
56
57
0 19
1 20
55
56
0 20
1 21
54
55
0 21
1 22
53
54
0 22
1 23
52
53
0 23
1 24
51
52
0 24
1 25
50
51
0 25
1 26
49
50
0 26
1 27
48
49
0 27
1 28
47
48
0 28
1 29
46
47
0 29
1 30
45
46
0 30
1 31
44
45
0 31
1 32
43
44
0 32
1 33
42
43
0 33
1 34
41
42
0 34
1 35
40
41
0 35
1 36
39
40
0 36
1 37
38
39
0 37
1 38
37
38
0 38
1 39
36
37
0 39
1 40
35
36
0 40
1 41
34
35
0 41
1 42
33
34
0 42
1 43
32
33
0 43
1 44
31
32
0 44
1 45
30
31
0 45
1 46
29
30
0 46
1 47
28
29
0 47
1 48
27
28
0 48
1 49
26
27
0 49
1 50
25
26
0 50
1 51
24
25
0 51
1 52
23
24
0 52
1 53
22
23
0 53
1 54
21
22
0 54
1 55
20
21
0 55
1 56
19
20
0 56
1 57
18
19
0 57
1 58
17
18
0 58
1 59
16
17
0 59
1 60
15
16
0 60
1 61
14
15
0 61
1 62
13
14
0 62
1 63
12
13
0 63
1 64
11
12
0 64
1 65
10
11
0 65
1 66
9
10
0 66
1 67
8
9
0 67
1 68
7
8
0 68
1 69
6
7
0 69
1 70
5
6
0 70
1 71
4
5
0 71
1 72
3
4
0 72
1 73
2
3
0 73
1 74
1
2
0 74
1 75
0
1
